int NumberPatients = 117
int NumberOfRooms = 12
int NumberSurgeons = 18
int NumberOfDays = 6
Duration = [98,64,131,72,32,60,119,103,119,97,131,78,39,131,217,210,40,32,119,53,47,93,85,59,98,103,238,58,98,66,60,260,66,85,58,60,198,47,227,72,66,47,59,119,103,93,66,53,98,252,96,103,53,85,114,159,53,227,272,119,66,80,132,32,47,39,55,64,32,103,81,72,47,47,85,32,66,66,72,60,42,103,117,74,249,119,60,32,66,165,210,50,208,72,98,32,260,60,98,32,60,256,201,98,47,32,66,145,98,98,103,53,131,103,60,47,131];
Priority = [0,0,0,0,0,0,0,0,1,0,0,0,0,0,0,0,0,0,0,0,0,0,0,0,1,0,0,0,0,0,0,0,0,0,0,0,0,0,0,0,0,0,0,0,0,0,0,0,0,0,0,0,0,0,0,0,0,0,0,0,0,1,0,0,0,0,0,0,0,0,0,0,0,0,0,0,0,0,0,0,0,0,0,0,0,0,0,0,0,0,0,0,0,0,0,0,0,0,0,0,0,0,0,0,0,0,0,0,0,1,0,0,0,0,0,0,0];
Waiting = [473,144,43,102,85,186,25,170,242,56,220,23,30,351,51,134,85,52,179,431,1065,120,389,44,37,78,106,284,66,50,32,122,172,183,60,59,37,57,150,57,84,84,35,37,196,73,150,338,507,319,57,178,35,207,35,23,190,150,70,548,121,101,288,59,270,92,36,24,37,115,25,39,107,548,487,23,72,60,44,77,80,316,98,120,116,70,487,37,95,478,1047,158,59,149,50,548,57,63,289,85,57,248,43,43,487,120,36,148,149,99,38,120,46,84,135,78,45];
Surgeon = [13,6,3,11,3,7,3,4,2,4,1,3,2,2,3,2,4,5,7,4,1,7,1,1,3,1,4,5,2,3,3,4,10,4,6,4,5,13,1,1,4,5,4,1,6,1,7,11,1,7,3,6,7,5,1,5,2,2,4,11,5,4,5,1,4,1,4,2,10,2,3,1,11,5,6,3,6,3,2,1,6,6,4,1,5,6,4,4,5,4,4,1,1,4,1,4,5,1,4,6,6,4,2,5,2,7,3,6,7,1,1,4,5,4,6,9,3];
BlockAvailability = [[[0,0],[0,0],[0,0],[1,0],[1,1],[0,1],[1,1],[0,0],[1,0],[0,1],[0,0],[1,1]],[[0,1],[1,0],[0,1],[0,0],[0,0],[1,0],[0,0],[0,0],[0,0],[1,0],[0,0],[0,0]],[[0,0],[1,0],[0,0],[0,1],[1,1],[1,0],[0,0],[0,0],[1,0],[0,0],[1,0],[0,0]],[[0,1],[0,1],[0,0],[1,0],[0,0],[0,1],[0,0],[0,1],[0,1],[1,0],[0,1],[1,0]],[[0,0],[0,0],[0,0],[0,0],[0,0],[0,0],[0,0],[0,1],[0,1],[1,0],[1,0],[0,0]],[[0,1],[0,0],[0,1],[0,0],[0,1],[0,1],[1,0],[0,1],[0,0],[1,1],[0,0],[1,1]]];
SurgeonAvailability = [[[1,1],[0,0],[1,1],[1,1],[0,1],[0,0]],[[1,1],[1,1],[1,1],[1,1],[1,1],[1,0]],[[0,1],[0,1],[1,1],[1,1],[1,1],[0,1]],[[1,0],[1,1],[0,1],[0,1],[1,1],[1,1]],[[1,1],[1,0],[1,1],[0,1],[1,0],[1,1]],[[0,0],[1,1],[1,1],[1,0],[1,0],[1,1]],[[1,1],[1,0],[0,1],[1,1],[0,0],[1,0]],[[0,1],[0,0],[1,1],[1,1],[1,1],[1,0]],[[1,1],[1,0],[1,1],[1,1],[1,0],[1,1]],[[1,1],[1,1],[1,1],[1,1],[1,0],[1,1]],[[0,1],[1,0],[1,1],[1,1],[1,1],[1,0]],[[1,0],[0,1],[1,1],[1,0],[0,1],[1,1]],[[1,1],[1,1],[1,1],[1,0],[1,1],[0,1]],[[1,0],[1,1],[1,1],[0,1],[0,1],[0,1]],[[0,0],[1,1],[1,1],[1,1],[1,1],[1,1]],[[1,1],[1,1],[0,0],[1,1],[0,0],[1,1]],[[1,0],[0,1],[1,0],[1,1],[0,1],[1,1]],[[1,1],[0,1],[1,1],[1,1],[1,1],[1,1]]];
